\ Model SP_copy
\ LP format - for model browsing. Use MPS format to capture full model detail.
Minimize
 
Subject To
 C2_one_size_only(9): r(9,1,0) + r(9,1,1) + r(9,1,2) + r(9,1,3) + r(9,1,4)
   + r(9,1,5) + r(9,1,6) + r(9,1,7) + r(9,1,8) + r(9,1,9) + r(9,2,0)
   + r(9,2,1) + r(9,2,2) + r(9,2,3) + r(9,2,4) + r(9,2,5) + r(9,2,6)
   + r(9,2,7) + r(9,2,8) + r(9,2,9) + r(9,3,0) + r(9,3,1) + r(9,3,2)
   + r(9,3,3) + r(9,3,4) + r(9,3,5) + r(9,3,6) + r(9,3,7) + r(9,3,8)
   + r(9,3,9) - y(9) = 0
Bounds
 r(9,1,0) = 1
 r(9,3,4) = 1
Binaries
 r(9,1,0) r(9,1,1) r(9,1,2) r(9,1,3) r(9,1,4) r(9,1,5) r(9,1,6) r(9,1,7)
 r(9,1,8) r(9,1,9) r(9,2,0) r(9,2,1) r(9,2,2) r(9,2,3) r(9,2,4) r(9,2,5)
 r(9,2,6) r(9,2,7) r(9,2,8) r(9,2,9) r(9,3,0) r(9,3,1) r(9,3,2) r(9,3,3)
 r(9,3,4) r(9,3,5) r(9,3,6) r(9,3,7) r(9,3,8) r(9,3,9) y(9)
End
